<number of tasks>
20

<cycle time>
1000

<order strength>
0,189


<task times>
1 667
2 474
3 640
4 402
5 615
6 555
7 578
8 393
9 473
10 628
11 494
12 430
13 553
14 489
15 550
16 377
17 654
18 507
19 620
20 598

<precedence relations>
1,8
3,9
6,7
7,13
8,11
8,12
9,10
10,14
11,16
12,15
14,19
15,18
15,20
16,17

<end>
